(set-info :origin "driver benchmark extracted from Microsoft SDV")
(set-logic HORN)
(declare-fun Proc9 (Int Int Int Bool Int Int) Bool)
(declare-fun Proc27 (Int Int Int Bool Int) Bool)
(declare-fun Proc24 (Int Int Int Bool Int) Bool)
(declare-fun Proc33 (Int Int Int Bool Int) Bool)
(declare-fun Proc43 (Int Int Int Bool Int Bool Int Int Int) Bool)
(declare-fun Proc6 (Int Int Int Bool Int) Bool)
(declare-fun Proc23 (Int Int Int Bool Int) Bool)
(declare-fun Proc14 (Int Int Int Bool) Bool)
(declare-fun Proc21 (Int Int Int Bool Int) Bool)
(declare-fun Proc37 (Int Int Int Bool Int Int) Bool)
(declare-fun Proc22 (Int Int Int Bool Int) Bool)
(declare-fun Proc30 (Int Int Int Bool Int) Bool)
(declare-fun Proc8 (Int Int Int Bool Int Int Int) Bool)
(declare-fun Proc11 (Int Int Int Bool Int Int Int) Bool)
(declare-fun Proc39 (Int Int Int Bool Int) Bool)
(declare-fun Proc32 (Int Int Int Bool Int) Bool)
(declare-fun Proc40 (Int Int Int Bool Int) Bool)
(declare-fun Proc25 (Int Int Int Bool Int) Bool)
(declare-fun Proc29 (Int Int Int Bool Int) Bool)
(declare-fun Proc41 (Int Int Int Bool Int Int Int) Bool)
(declare-fun Proc7 (Int Int Int Bool Int Int Int Int Int) Bool)
(declare-fun Proc20 (Int Int Int Bool Int Int Int Bool Int) Bool)
(declare-fun Proc16 (Int Int Int Bool Int) Bool)
(declare-fun Proc36 (Int Int Int Bool Int) Bool)
(declare-fun Proc10 (Int Int Int Bool Int Int Int) Bool)
(declare-fun Proc13 (Int Int Int Bool Int Int Int) Bool)
(declare-fun Proc38 (Int Int Int Bool Int Int Int Int Int Int) Bool)
(declare-fun Proc31 (Int Int Int Bool Int) Bool)
(declare-fun Proc2 (Int Int Int Bool Int Int Int Int Int) Bool)
(declare-fun Proc18 (Int Int Int Bool Int) Bool)
(declare-fun Proc4 (Int Int Int Bool Int Int Int Int Int) Bool)
(declare-fun Proc12 (Int Int Int Bool Int) Bool)
(declare-fun Proc35 (Int Int Int Bool Int) Bool)
(declare-fun Proc26 (Int Int Int Bool Int) Bool)
(declare-fun Proc3 (Int Int Int Bool Int Int Int Int Int) Bool)
(declare-fun Proc42 (Int Int Int Bool) Bool)
(declare-fun Proc17 (Int Int Int Bool Int) Bool)
(declare-fun Proc19 (Int Int Int Bool Int Int Int) Bool)
(declare-fun Proc28 (Int Int Int Bool Int) Bool)
(declare-fun Proc1 (Int Int Int Bool Int Int Int) Bool)
(declare-fun Proc15 (Int Int Int Bool) Bool)
(declare-fun Proc34 (Int Int Int Bool Int Int) Bool)
(declare-fun Proc0 (Int Int Int Bool Int Int) Bool)
(declare-fun Proc5 (Int Int Int Bool Int Int Int Int) Bool)
(assert (forall ((A Int) (B Int) (C Int) (D Int) (E Int) (F Int) (G Int) (H Bool))
  (let ((a!1 (not (or (not H) (not (Proc0 G F E H 0 D)) (not (= C 0))))))
    (=> a!1 (Proc1 G F E H B A C)))))
(assert (forall ((A Int)
         (B Int)
         (C Int)
         (D Int)
         (E Int)
         (F Int)
         (G Int)
         (H Bool)
         (I Int)
         (J Int)
         (K Int)
         (L Int)
         (M Int)
         (N Int))
  (let ((a!1 (not (and (= C E) (= B G) (= A F)))))
  (let ((a!2 (or (not (and (= F 1) (= E D))) a!1)))
  (let ((a!3 (and a!2 (or (= F 1) (not (= E 0)) a!1))))
  (let ((a!4 (not (or (not H) (not (Proc2 N M L H K J I G F)) a!3))))
    (=> a!4 (Proc3 N M L H K J C B A))))))))
(assert (forall ((A Int)
         (B Int)
         (C Int)
         (D Int)
         (E Int)
         (F Int)
         (G Int)
         (H Bool)
         (I Int)
         (J Int)
         (K Int)
         (L Int)
         (M Int)
         (N Int)
         (O Int)
         (P Int)
         (Q Int)
         (R Int)
         (S Int)
         (T Int)
         (U Int)
         (V Int))
  (let ((a!1 (and (not (<= T (+ 4 V))) (not (<= T U))))
        (a!2 (or (not (Proc4 T R Q H P S O V N)) (not (and (= M 259) (= L T)))))
        (a!4 (or (not (Proc4 T R Q H K S J V I)) (not (and (= M 259) (= L T)))))
        (a!6 (or (not (Proc4 T R Q H G S F V E)) (not (and (= M 259) (= L T)))))
        (a!8 (or (not (Proc4 T R Q H D S C V B)) (not (and (= M 259) (= L T))))))
  (let ((a!3 (and a!2 (not (and (= M 259) (= L T)))))
        (a!5 (and a!4 (not (and (= M 259) (= L T)))))
        (a!7 (and a!6 (not (and (= M 259) (= L T)))))
        (a!9 (and a!8 (not (and (= M 259) (= L T))))))
  (let ((a!10 (or (not H)
                  (not (= V U))
                  (not a!1)
                  (and (or (= S 0) a!3)
                       (or (= S 0) a!5)
                       (or (= S 0) a!7)
                       (or (= S 0) a!9)))))
    (=> (not a!10) (Proc5 U R Q H A S M L)))))))
(assert (forall ((A Int) (B Int) (C Int) (D Int) (E Int) (H Bool))
  (let ((a!1 (not (or (not H) (not (Proc6 E D C H B)) (not (= A 0))))))
    (=> a!1 (Proc0 E D C H B A)))))
(assert (forall ((A Int)
         (B Int)
         (C Int)
         (D Int)
         (E Int)
         (F Int)
         (G Int)
         (H Bool)
         (I Int)
         (J Int)
         (K Int)
         (L Int)
         (M Int)
         (N Int)
         (O Int)
         (P Int)
         (Q Int)
         (R Int)
         (S Int)
         (T Int)
         (U Int)
         (V Int))
  (let ((a!1 (not (Proc7 T R V H Q P O N M)))
        (a!2 (not (and (= G L) (= F I) (= E J))))
        (a!6 (and (not (<= C (+ 1 D))) (not (<= C S)))))
  (let ((a!3 (or (not (and (= M 1) (= L K) (= J M) (= I N))) a!2))
        (a!4 (or (= M 1) (not (= L O)) (not (and (= J M) (= I N))) a!2))
        (a!7 (or (not (and (= A 1) (= L K) (= J A) (= I B))) a!2)))
  (let ((a!5 (or (not (and (= V U) (= T S))) a!1 (and a!3 a!4)))
        (a!8 (or (= A 1) (not (and (= V A) (= T B))) a!1 (and a!3 a!4))))
  (let ((a!9 (and a!5
                  (or (not (= D S))
                      (not a!6)
                      (not (Proc8 C R U H D B A))
                      (and a!7 a!8)))))
    (=> (not (or (not H) a!9)) (Proc2 S R U H Q P G F E))))))))
(assert (forall ((A Int)
         (B Int)
         (C Int)
         (D Int)
         (E Int)
         (F Int)
         (G Int)
         (H Bool)
         (I Int)
         (J Int))
  (let ((a!1 (and (not (<= G (+ 1 J))) (not (<= G I)))))
  (let ((a!2 (or (not H)
                 (not (= J I))
                 (not a!1)
                 (not (Proc9 G F E H J D))
                 (not (and (= C G) (= B D))))))
    (=> (not a!2) (Proc10 I F E H A C B))))))
(assert (forall ((A Int)
         (B Int)
         (C Int)
         (D Int)
         (E Int)
         (F Int)
         (G Int)
         (H Bool)
         (I Int)
         (J Int))
  (let ((a!1 (and (not (<= G (+ 1 J))) (not (<= G I)))))
  (let ((a!2 (or (not H)
                 (not (= J I))
                 (not a!1)
                 (not (Proc9 G F E H J D))
                 (not (and (= C G) (= B D))))))
    (=> (not a!2) (Proc11 I F E H A C B))))))
(assert (forall ((A Int) (B Int) (C Int) (D Int) (E Int) (H Bool))
  (let ((a!1 (not (or (not H) (not (= E 1))))))
    (=> a!1 (Proc9 D C B H A E)))))
(assert (forall ((A Int) (B Int) (C Int) (D Int) (H Bool))
  (=> false (Proc12 D C B H A))))
(assert (forall ((A Int)
         (B Int)
         (C Int)
         (D Int)
         (E Int)
         (F Int)
         (G Int)
         (H Bool)
         (I Int)
         (J Int)
         (K Int)
         (L Int)
         (M Int)
         (N Int)
         (O Int))
  (let ((a!1 (and (not (<= M (+ 1 O))) (not (<= M N))))
        (a!3 (or (not (= C 1))
                 (not (and (= J D) (= I C)))
                 (not (and (= G J) (= F I)))))
        (a!4 (or (= C 1)
                 (not (and (= J D) (= I C)))
                 (not (and (= G J) (= F I)))))
        (a!5 (and (not (<= A (+ 1 B))) (not (<= A N)))))
  (let ((a!2 (or (not (= O N))
                 (not a!1)
                 (not (Proc12 M L K H O))
                 (not (and (= J M) (= I K)))
                 (not (and (= G J) (= F I)))))
        (a!6 (or (<= 2 L)
                 (not (= B N))
                 (not a!5)
                 (not (Proc12 A L K H B))
                 (not (and (= J A) (= I K)))
                 (not (and (= G J) (= F I))))))
  (let ((a!7 (and a!2
                  (or (not (<= 2 L)) (not (Proc10 N L K H E D C)) (and a!3 a!4))
                  a!6)))
    (=> (not (or (not H) a!7)) (Proc13 N L K H E G F)))))))
(assert (forall ((A Int)
         (B Int)
         (C Int)
         (D Int)
         (E Int)
         (F Int)
         (G Int)
         (H Bool)
         (I Int)
         (J Int)
         (K Int)
         (L Int)
         (M Int)
         (N Int)
         (O Int))
  (let ((a!1 (and (not (<= M (+ 1 O))) (not (<= M N))))
        (a!3 (or (not (= C 1))
                 (not (and (= J D) (= I C)))
                 (not (and (= G J) (= F I)))))
        (a!4 (or (= C 1)
                 (not (and (= J D) (= I C)))
                 (not (and (= G J) (= F I)))))
        (a!5 (and (not (<= A (+ 1 B))) (not (<= A N)))))
  (let ((a!2 (or (not (= O N))
                 (not a!1)
                 (not (Proc12 M L K H O))
                 (not (and (= J M) (= I K)))
                 (not (and (= G J) (= F I)))))
        (a!6 (or (<= 2 L)
                 (not (= B N))
                 (not a!5)
                 (not (Proc12 A L K H B))
                 (not (and (= J A) (= I K)))
                 (not (and (= G J) (= F I))))))
  (let ((a!7 (and a!2
                  (or (not (<= 2 L)) (not (Proc11 N L K H E D C)) (and a!3 a!4))
                  a!6)))
    (=> (not (or (not H) a!7)) (Proc8 N L K H E G F)))))))
(assert (forall ((A Int) (B Int) (C Int) (H Bool)) (=> H (Proc14 C B A H))))
(assert (forall ((A Int) (B Int) (C Int) (H Bool)) (=> H (Proc15 C B A H))))
(assert (forall ((A Int) (B Int) (C Int) (D Int) (H Bool))
  (let ((a!1 (not (or (not H) (not (= D 0))))))
    (=> a!1 (Proc16 C B A H D)))))
(assert (forall ((A Int) (B Int) (C Int) (D Int) (H Bool))
  (let ((a!1 (not (or (not H) (not (= D 0))))))
    (=> a!1 (Proc17 C B A H D)))))
(assert (forall ((A Int)
         (B Int)
         (C Int)
         (D Int)
         (E Int)
         (F Int)
         (G Int)
         (H Bool)
         (I Int)
         (J Int)
         (K Int)
         (L Int)
         (M Int)
         (N Int)
         (O Int)
         (P Int)
         (Q Int)
         (W Bool)
         (X Bool)
         (Y Bool))
  (let ((a!1 (not (and (not (<= Q 0)) (Proc18 Q P O Y N))))
        (a!2 (not (and (= E G) (= D I) (= C K) (= W X) (= B J)))))
  (let ((a!3 (or (= I 0) (not (and (= G F) (not X))) a!2))
        (a!4 (or (not (and (= I 0) (= H Y))) (not (and (= G A) (= X H))) a!2)))
  (let ((a!5 (and (or (= I 1) (and a!3 a!4)) (or (not (= I 1)) (and a!3 a!4)))))
  (let ((a!6 (not (or (not Y)
                      a!1
                      (not (Proc17 N P O Y M))
                      (not (Proc16 N P M Y L))
                      (not (Proc15 N L M Y))
                      (not (Proc14 N L M Y))
                      (not (Proc19 N L M Y K J I))
                      a!5))))
    (=> a!6 (Proc20 Q P O Y E D C W B))))))))
(assert (forall ((A Int) (B Int) (C Int) (D Int) (H Bool))
  (let ((a!1 (not (or (not H) (not (= D 1))))))
    (=> a!1 (Proc21 C B A H D)))))
(assert (forall ((A Int) (B Int) (C Int) (D Int) (H Bool))
  (let ((a!1 (not (or (not H) (not (= D 0))))))
    (=> a!1 (Proc22 C B A H D)))))
(assert (forall ((A Int) (B Int) (C Int) (D Int) (H Bool))
  (let ((a!1 (not (or (not H) (not (= D 1))))))
    (=> a!1 (Proc23 C B A H D)))))
(assert (forall ((A Int) (B Int) (C Int) (D Int) (H Bool))
  (let ((a!1 (not (or (not H) (not (= D 1))))))
    (=> a!1 (Proc24 C B A H D)))))
(assert (forall ((A Int) (B Int) (C Int) (D Int) (H Bool))
  (let ((a!1 (not (or (not H) (not (= D 1))))))
    (=> a!1 (Proc25 C B A H D)))))
(assert (forall ((A Int) (B Int) (C Int) (D Int) (H Bool))
  (let ((a!1 (not (or (not H) (not (= D 0))))))
    (=> a!1 (Proc26 C B A H D)))))
(assert (forall ((A Int) (B Int) (C Int) (D Int) (H Bool))
  (let ((a!1 (not (or (not H) (not (= D 0))))))
    (=> a!1 (Proc27 C B A H D)))))
(assert (forall ((A Int) (B Int) (C Int) (D Int) (H Bool))
  (let ((a!1 (not (or (not H) (not (= D 1))))))
    (=> a!1 (Proc28 C B A H D)))))
(assert (forall ((A Int) (B Int) (C Int) (D Int) (H Bool))
  (let ((a!1 (not (or (not H) (not (= D 1))))))
    (=> a!1 (Proc29 C B A H D)))))
(assert (forall ((A Int) (B Int) (C Int) (D Int) (H Bool))
  (let ((a!1 (not (or (not H) (not (= D 0))))))
    (=> a!1 (Proc30 C B A H D)))))
(assert (forall ((A Int) (B Int) (C Int) (D Int) (H Bool))
  (let ((a!1 (not (or (not H) (not (= D 0))))))
    (=> a!1 (Proc31 C B A H D)))))
(assert (forall ((A Int) (B Int) (C Int) (D Int) (E Int) (H Bool))
  (let ((a!1 (or (not H) (not (= E (- 1073741823))) (not (= D E)))))
    (=> (not a!1) (Proc32 C B A H D)))))
(assert (forall ((A Int) (B Int) (C Int) (D Int) (H Bool)) (=> H (Proc6 D C B H A))))
(assert (forall ((A Int)
         (B Int)
         (C Int)
         (D Int)
         (E Int)
         (F Int)
         (G Int)
         (H Bool)
         (I Int)
         (J Int)
         (K Int)
         (L Int)
         (M Int)
         (N Int)
         (O Int)
         (P Int)
         (Q Int)
         (R Int)
         (S Int)
         (T Int)
         (U Int))
  (let ((a!1 (not (Proc5 S Q U H P O N M)))
        (a!2 (not (and (= I L) (= G J) (= F K))))
        (a!4 (and (not (<= D (+ 1 E))) (not (<= D R)))))
  (let ((a!3 (or (not (and (= U T) (= S R)))
                 a!1
                 (not (= L N))
                 (not (and (= K U) (= J M)))
                 a!2))
        (a!5 (or (not (and (= B 1) (= L A) (= K B) (= J C))) a!2))
        (a!6 (or (= B 1)
                 (not (and (= U B) (= S C)))
                 a!1
                 (not (= L N))
                 (not (and (= K U) (= J M)))
                 a!2)))
  (let ((a!7 (and a!3
                  (or (not (= E R))
                      (not a!4)
                      (not (Proc13 D Q T H E C B))
                      (and a!5 a!6)))))
    (=> (not (or (not H) a!7)) (Proc7 R Q T H P O I G F)))))))
(assert (forall ((A Int) (B Int) (C Int) (D Int) (H Bool))
  (let ((a!1 (not (or (not H) (not (= D 0))))))
    (=> a!1 (Proc33 C B A H D)))))
(assert (forall ((A Int)
         (B Int)
         (C Int)
         (D Int)
         (E Int)
         (F Int)
         (G Int)
         (H Bool)
         (I Int)
         (J Int))
  (let ((a!1 (and (or (not (= J I)) (not (= G J)))
                  (or (not (= J F)) (not (= G J)))
                  (or (not (= J E)) (not (= G J))))))
    (=> (not (or (not H) a!1)) (Proc34 D C B H A G)))))
(assert (forall ((A Int)
         (B Int)
         (C Int)
         (D Int)
         (E Int)
         (F Int)
         (G Int)
         (H Bool)
         (I Int)
         (J Int)
         (K Int)
         (L Int)
         (M Int)
         (N Int)
         (O Int)
         (P Int)
         (Q Int)
         (R Int)
         (S Int)
         (T Int)
         (U Int)
         (V Int)
         (Z Int)
         (A1 Int)
         (B1 Int)
         (C1 Int)
         (D1 Int)
         (E1 Int)
         (F1 Int)
         (G1 Int)
         (H1 Int)
         (I1 Int)
         (J1 Int)
         (K1 Int)
         (L1 Int))
  (let ((a!1 (not (and (= U A1) (= T G1) (= S V) (= R Z))))
        (a!12 (not (and (not (= F 1)) (= D1 I) (= C1 F) (= B1 G)))))
  (let ((a!2 (or (= H1 0)
                 (not (Proc1 K1 G1 I1 H F1 L1 E1))
                 (not (= D1 E1))
                 (not (and (= C1 I1) (= B1 K1)))
                 (not (Proc37 B1 G1 C1 H D1 L1))
                 (= L1 0)
                 (not (= A1 D1))
                 (not (and (= Z C1) (= V B1)))
                 a!1))
        (a!3 (or (= H1 0)
                 (not (Proc32 K1 G1 I1 H Q))
                 (not (= D1 Q))
                 (not (and (= C1 I1) (= B1 K1)))
                 (not (Proc37 B1 G1 C1 H D1 L1))
                 (= L1 0)
                 (not (= A1 D1))
                 (not (and (= Z C1) (= V B1)))
                 a!1))
        (a!4 (or (= H1 0)
                 (not (Proc32 K1 G1 I1 H P))
                 (not (= D1 P))
                 (not (and (= C1 I1) (= B1 K1)))
                 (not (Proc37 B1 G1 C1 H D1 L1))
                 (= L1 0)
                 (not (= A1 D1))
                 (not (and (= Z C1) (= V B1)))
                 a!1))
        (a!5 (or (= H1 0)
                 (not (Proc32 K1 G1 I1 H O))
                 (not (= D1 O))
                 (not (and (= C1 I1) (= B1 K1)))
                 (not (Proc37 B1 G1 C1 H D1 L1))
                 (= L1 0)
                 (not (= A1 D1))
                 (not (and (= Z C1) (= V B1)))
                 a!1))
        (a!6 (or (= H1 0)
                 (not (Proc32 K1 G1 I1 H N))
                 (not (= D1 N))
                 (not (and (= C1 I1) (= B1 K1)))
                 (not (Proc37 B1 G1 C1 H D1 L1))
                 (= L1 0)
                 (not (= A1 D1))
                 (not (and (= Z C1) (= V B1)))
                 a!1))
        (a!7 (or (not (Proc32 K1 G1 I1 H M))
                 (not (= D1 M))
                 (not (and (= C1 I1) (= B1 K1)))
                 (not (Proc37 B1 G1 C1 H D1 L1))
                 (= L1 0)
                 (not (= A1 D1))
                 (not (and (= Z C1) (= V B1)))
                 a!1))
        (a!8 (or (= H1 0)
                 (not (Proc32 K1 G1 I1 H L))
                 (not (= D1 L))
                 (not (and (= C1 I1) (= B1 K1)))
                 (not (Proc37 B1 G1 C1 H D1 L1))
                 (= L1 0)
                 (not (= A1 D1))
                 (not (and (= Z C1) (= V B1)))
                 a!1))
        (a!9 (or (not (Proc32 K1 G1 I1 H K))
                 (not (= D1 K))
                 (not (and (= C1 I1) (= B1 K1)))
                 (not (Proc37 B1 G1 C1 H D1 L1))
                 (= L1 0)
                 (not (= A1 D1))
                 (not (and (= Z C1) (= V B1)))
                 a!1))
        (a!10 (or (= H1 0)
                  (not (Proc32 K1 G1 I1 H J))
                  (not (= D1 J))
                  (not (and (= C1 I1) (= B1 K1)))
                  (not (Proc37 B1 G1 C1 H D1 L1))
                  (= L1 0)
                  (not (= A1 D1))
                  (not (and (= Z C1) (= V B1)))
                  a!1))
        (a!11 (or (not (and (= F 1) (= A1 E) (= Z F) (= V G))) a!1))
        (a!13 (or a!12
                  (not (Proc37 B1 G1 C1 H D1 L1))
                  (= L1 0)
                  (not (= A1 D1))
                  (not (and (= Z C1) (= V B1)))
                  a!1))
        (a!14 (or (not (Proc32 K1 G1 I1 H D))
                  (not (= D1 D))
                  (not (and (= C1 I1) (= B1 K1)))
                  (not (Proc37 B1 G1 C1 H D1 L1))
                  (= L1 0)
                  (not (= A1 D1))
                  (not (and (= Z C1) (= V B1)))
                  a!1))
        (a!15 (or (= H1 0)
                  (not (Proc32 K1 G1 I1 H C))
                  (not (= D1 C))
                  (not (and (= C1 I1) (= B1 K1)))
                  (not (Proc37 B1 G1 C1 H D1 L1))
                  (= L1 0)
                  (not (= A1 D1))
                  (not (and (= Z C1) (= V B1)))
                  a!1))
        (a!16 (or (not (= B 1))
                  (= B 0)
                  (= H1 0)
                  (not (Proc32 K1 G1 I1 H C))
                  (not (= D1 C))
                  (not (and (= C1 I1) (= B1 K1)))
                  (not (Proc37 B1 G1 C1 H D1 L1))
                  (= L1 0)
                  (not (= A1 D1))
                  (not (and (= Z C1) (= V B1)))
                  a!1)))
  (let ((a!17 (and (or (= H1 0) (and a!15 a!16))
                   (or (not (= A 1)) (= A 0) (= H1 0) (and a!15 a!16)))))
  (let ((a!18 (and a!2
                   a!3
                   a!4
                   a!5
                   a!6
                   a!7
                   a!8
                   a!9
                   a!10
                   (or (= H1 0)
                       (not (Proc3 K1 G1 I1 H F1 L1 I G F))
                       (and a!11 a!13))
                   a!14
                   (or (= H1 0) a!17))))
  (let ((a!19 (not (or (not H)
                       (= L1 0)
                       (not (Proc35 K1 J1 I1 H L1))
                       (= H1 0)
                       (not (Proc36 K1 J1 I1 H G1))
                       a!18))))
    (=> a!19 (Proc38 K1 J1 I1 H F1 L1 U T S R)))))))))
(assert (forall ((A Int)
         (B Int)
         (C Int)
         (D Int)
         (E Int)
         (F Int)
         (G Int)
         (H Bool)
         (I Int)
         (J Int))
  (let ((a!1 (not (or (not H) (not (Proc34 J I G H F E)) (not (= D 0))))))
    (=> a!1 (Proc4 J I G H C F B A D)))))
(assert (forall ((A Int)
         (B Int)
         (C Int)
         (D Int)
         (E Int)
         (F Int)
         (G Int)
         (H Bool)
         (I Int)
         (J Int))
  (let ((a!1 (not (or (not H)
                      (not (Proc39 J I G H F))
                      (not (Proc32 J F G H E))
                      (not (Proc40 J F G H D))
                      (not (= C D))))))
    (=> a!1 (Proc41 J I G H B A C)))))
(assert (forall ((A Int) (B Int) (C Int) (D Int) (H Bool))
  (=> (not (or (not H) (= D 0))) (Proc35 C B A H D))))
(assert (forall ((A Int)
         (B Int)
         (C Int)
         (D Int)
         (E Int)
         (F Int)
         (G Int)
         (H Bool)
         (I Int)
         (J Int)
         (K Int)
         (L Int)
         (M Int)
         (N Int)
         (O Int)
         (P Int)
         (Q Int)
         (R Int)
         (S Int)
         (T Int)
         (U Int)
         (V Int)
         (Z Int)
         (A1 Int)
         (B1 Int)
         (C1 Int)
         (D1 Int)
         (E1 Int)
         (F1 Int)
         (G1 Int)
         (H1 Int))
  (let ((a!1 (not (and (= F J) (= E I) (= D G))))
        (a!3 (not (and (not (= K 1)) (= J M) (= I L) (= G K)))))
  (let ((a!2 (or (not (and (= K 1) (= J M) (= I L) (= G K))) a!1))
        (a!4 (or (not (and (= E1 0) (= J G1) (= I H1) (= G F1))) a!1))
        (a!5 (or (= D1 0)
                 (not (Proc42 H1 G1 F1 H))
                 (not (and (Proc41 H1 G1 F1 H C B A) (= J A) (= I H1) (= G F1)))
                 a!1))
        (a!6 (or (not (and (= D1 0) (= J G1) (= I H1) (= G F1))) a!1))
        (a!7 (or (not (= J G1)) (not (and (= I H1) (= G F1))) a!1)))
  (let ((a!8 (and (or (= E1 0)
                      (not (Proc42 H1 G1 F1 H))
                      (not (Proc38 H1 G1 F1 H P O N M L K))
                      (and a!2 (or a!3 a!1)))
                  a!4
                  a!5
                  a!6
                  a!7)))
  (let ((a!9 (not (or (not H)
                      (not (Proc23 H1 G1 F1 H E1))
                      (not (Proc30 H1 G1 F1 H D1))
                      (not (Proc24 H1 G1 F1 H C1))
                      (not (Proc29 H1 G1 F1 H B1))
                      (not (Proc22 H1 G1 F1 H A1))
                      (not (Proc26 H1 G1 F1 H Z))
                      (not (Proc33 H1 G1 F1 H V))
                      (not (Proc31 H1 G1 F1 H U))
                      (not (Proc21 H1 G1 F1 H T))
                      (not (Proc27 H1 G1 F1 H S))
                      (not (Proc28 H1 G1 F1 H R))
                      (not (Proc25 H1 G1 F1 H Q))
                      a!8))))
    (=> a!9 (Proc19 H1 G1 F1 H F E D))))))))
(assert (forall ((A Int) (B Int) (C Int) (D Int) (H Bool))
  (let ((a!1 (not (or (not H) (not (= D 0))))))
    (=> a!1 (Proc36 C B A H D)))))
(assert (forall ((A Int) (B Int) (C Int) (D Int) (E Int) (H Bool))
  (=> H (Proc37 E D C H B A))))
(assert (forall ((A Int) (B Int) (C Int) (H Bool)) (=> H (Proc42 C B A H))))
(assert (forall ((A Int) (B Int) (C Int) (D Int) (H Bool))
  (let ((a!1 (not (or (not H) (not (= D 2))))))
    (=> a!1 (Proc39 C B A H D)))))
(assert (forall ((A Int) (B Int) (C Int) (D Int) (H Bool))
  (let ((a!1 (not (or (not H) (not (= D 0))))))
    (=> a!1 (Proc40 C B A H D)))))
(assert (forall ((A Int)
         (B Int)
         (C Int)
         (D Int)
         (E Int)
         (F Int)
         (G Int)
         (H Bool)
         (I Int)
         (J Int)
         (K Int)
         (L Int)
         (M Int)
         (N Int)
         (O Int)
         (P Int)
         (Q Int)
         (R Int)
         (S Int)
         (T Int)
         (U Int)
         (V Int)
         (Z Int)
         (A1 Int)
         (B1 Int)
         (C1 Int)
         (D1 Int)
         (E1 Int)
         (F1 Int)
         (G1 Int)
         (H1 Int)
         (I1 Int)
         (J1 Int)
         (K1 Int)
         (L1 Int)
         (M1 Int)
         (N1 Int)
         (O1 Int)
         (P1 Int)
         (Q1 Int)
         (R1 Int)
         (S1 Int)
         (T1 Int)
         (U1 Int)
         (V1 Int)
         (W1 Int)
         (X1 Int)
         (Y1 Int)
         (Z1 Int)
         (A2 Int)
         (B2 Int)
         (C2 Int)
         (D2 Int)
         (E2 Int)
         (F2 Int)
         (G2 Int)
         (H2 Int))
  (let ((a!1 (and (= H2 G2) (not (<= F2 (+ 240 H2)))))
        (a!2 (and (not (<= F2 G2))
                  (= E2 F2)
                  (not (<= D2 (+ 4 E2)))
                  (not (<= D2 F2))))
        (a!3 (and (= C2 D2)
                  (not (<= B2 (+ 332 C2)))
                  (not (<= B2 D2))
                  (= A2 B2)
                  (not (<= Z1 (+ 4 A2)))
                  (not (<= Z1 B2))
                  (= Y1 Z1)
                  (not (<= X1 (+ 536 Y1)))))
        (a!4 (and (not (<= X1 Z1))
                  (= W1 X1)
                  (not (<= V1 (+ 240 W1)))
                  (not (<= V1 X1))
                  (= U1 V1)
                  (not (<= T1 (+ 240 U1)))
                  (not (<= T1 V1))
                  (= S1 T1)
                  (not (<= R1 (+ 536 S1)))
                  (not (<= R1 T1))
                  (= Q1 R1)
                  (not (<= P1 (+ 240 Q1)))
                  (not (<= P1 R1))
                  (= O1 P1)
                  (not (<= N1 (+ 4 O1)))
                  (not (<= N1 P1))
                  (= M1 N1)
                  (not (<= L1 (+ 536 M1)))
                  (not (<= L1 N1))
                  (= K1 L1)
                  (not (<= J1 (+ 332 K1)))
                  (not (<= J1 L1))
                  (= I1 J1)
                  (not (<= H1 (+ 240 I1)))
                  (not (<= H1 J1))
                  (= G1 H1)
                  (not (<= F1 (+ 240 G1)))
                  (not (<= F1 H1))
                  (= E1 F1)
                  (not (<= D1 (+ 332 E1)))
                  (not (<= D1 F1))
                  (= C1 D1)
                  (not (<= B1 (+ 4 C1)))
                  (not (<= B1 D1))
                  (= A1 B1)
                  (not (<= Z (+ 536 A1)))
                  (not (<= Z B1))
                  (= V Z)
                  (not (<= U (+ 240 V)))
                  (not (<= U Z))
                  (= T U)
                  (not (<= S (+ 240 T)))
                  (not (<= S U))
                  (= R S)
                  (not (<= Q (+ 240 R)))
                  (not (<= Q S))
                  (= P Q)
                  (not (<= O (+ 240 P)))
                  (not (<= O Q))
                  (= N O)
                  (not (<= M (+ 240 N)))
                  (not (<= M O))
                  (= L M)
                  (not (<= K (+ 40 L)))
                  (not (<= K M))
                  (= J K)
                  (not (<= I (+ 332 J)))
                  (not (<= I K))
                  (= G I)
                  (not (<= F (+ 4 G)))
                  (not (<= F I))
                  (= E F)
                  (not (<= D (+ 40 E)))
                  (not (<= D F)))))
  (let ((a!5 (not (or (not H)
                      (not a!1)
                      (not a!2)
                      (not a!3)
                      (not a!4)
                      (not (= C D))))))
    (=> a!5 (Proc18 G2 B A H C))))))
(assert (forall ((A Int)
         (B Int)
         (C Int)
         (D Int)
         (E Int)
         (F Int)
         (G Int)
         (H Bool)
         (I Int)
         (J Int)
         (K Int)
         (L Int)
         (W Bool)
         (X Bool))
  (let ((a!1 (or (not X) (not (and (Proc20 L K J true I G F W E) (not W))))))
    (=> (not a!1) (Proc43 L K J X D H C B A)))))
(assert (let ((a!1 (exists ((V0 Int)
                    (V1 Int)
                    (V2 Int)
                    (V3 Bool)
                    (V4 Int)
                    (V5 Bool)
                    (V6 Int)
                    (V7 Int)
                    (V8 Int))
             (not (=> (and (Proc43 V0 V1 V2 V3 V4 V5 V6 V7 V8) (not false))
                      false)))))
  (not a!1)))

(check-sat)
